lbl,CUST NO.,READY TIME,XCOORD.,YCOORD.,DEMAND,DUE DATE,SERVICE TIME
14,283,206,198,16,18,216,10
14,152,288,197,7,13,298,10
14,126,302,182,9,30,312,10
14,135,334,186,8,31,344,10
14,297,384,193,12,3,394,10
14,345,419,197,29,16,429,10
14,363,546,179,5,9,556,10
